 vasp.5.4.4.18Apr17-6-g9f103f2a35 (build Nov 04 2020 14:40:39) complex

 executed on             LinuxIFC date 2021.02.22  10:59:18

 INCAR:
 POTCAR:    PAW_PBE Au 04Oct2007

 POTCAR:    PAW_PBE Au 04Oct2007
   VRHFIN =Au: s1d10

   TITEL  = PAW_PBE Au 04Oct2007
   POMASS =  196.966; ZVAL   =   11.000    mass and valenz
   ENMAX  =  229.943; ENMIN  =  172.457 eV

  PAW_PBE Au 04Oct2007                  :

 POSCAR: Au
  positions in cartesian coordinates
 exchange correlation table for  LEXCH =        8
   RHO(1)=    0.500       N(1)  =     2000
   RHO(2)=  100.500       N(2)  =     4000

 VTST: version 3.2, (02/03/18)

 CHAIN: initializing optimizer

 OPT: Using VASP Conjugate-Gradient optimizer
 CHAIN: Read ICHAIN            0

 POSCAR: Au
  positions in cartesian coordinates

 ion  position               nearest neighbor table
   1  0.167  0.167  0.403-   5 2.94   8 2.94   6 2.94   3 2.94   3 2.94   4 2.94   4 2.94   2 2.94
                             2 2.94
   2  0.667  0.167  0.403-   6 2.94   7 2.94   5 2.94   4 2.94   3 2.94   4 2.94   3 2.94   1 2.94
                             1 2.94
   3  0.167  0.667  0.403-   6 2.94   7 2.94   8 2.94   1 2.94   1 2.94   2 2.94   2 2.94   4 2.94
                             4 2.94
   4  0.667  0.667  0.403-   5 2.94   8 2.94   7 2.94   2 2.94   1 2.94   2 2.94   1 2.94   3 2.94
                             3 2.94
   5  0.833  0.333  0.500-   1 2.94   4 2.94  11 2.94   9 2.94  12 2.94   2 2.94   7 2.94   7 2.94
                             8 2.94   8 2.94   6 2.94   6 2.94
   6  0.333  0.333  0.500-   2 2.94   3 2.94  12 2.94  11 2.94  10 2.94   1 2.94   8 2.94   7 2.94
                             8 2.94   7 2.94   5 2.94   5 2.94
   7  0.833  0.833  0.500-   2 2.94   3 2.94   9 2.94  10 2.94  11 2.94   4 2.94   5 2.94   5 2.94
                             6 2.94   6 2.94   8 2.94   8 2.94
   8  0.333  0.833  0.500-   1 2.94   4 2.94  10 2.94   9 2.94  12 2.94   3 2.94   6 2.94   5 2.94
                             6 2.94   5 2.94   7 2.94   7 2.94
   9  0.000  0.000  0.597-   7 2.94   5 2.94   8 2.94  11 2.94  11 2.94  12 2.94  12 2.94  10 2.94
                            10 2.94
  10  0.500  0.000  0.597-   8 2.94   7 2.94   6 2.94  12 2.94  11 2.94  12 2.94  11 2.94   9 2.94
                             9 2.94
  11  0.000  0.500  0.597-   5 2.94   6 2.94   7 2.94   9 2.94   9 2.94  10 2.94  10 2.94  12 2.94
                            12 2.94
  12  0.500  0.500  0.597-   6 2.94   5 2.94   8 2.94  10 2.94   9 2.94  10 2.94   9 2.94  11 2.94
                            11 2.94

IMPORTANT INFORMATION: All symmetrisations will be switched off!
NOSYMM: (Re-)initialisation of all symmetry stuff for point group C_1.

 KPOINTS: KPOINTS created by Atomic Simulation Env

Automatic generation of k-mesh.
Space group operators:
 irot       det(A)        alpha          n_x          n_y          n_z        tau_x        tau_y        tau_z
    1     1.000000     0.000001     1.000000     0.000000     0.000000     0.000000     0.000000     0.000000

 Subroutine IBZKPT returns following result:

 Found     24 irreducible k-points:

 Following reciprocal coordinates:
            Coordinates               Weight
  0.125000  0.125000  0.000000     16.000000
  0.000000  0.125000  0.000000     16.000000
 -0.125000  0.000000  0.000000     16.000000
  0.375000  0.125000  0.000000     16.000000
  0.250000  0.375000  0.000000     16.000000
 -0.125000  0.250000  0.000000     16.000000
  0.250000 -0.125000  0.000000     16.000000
 -0.125000 -0.375000  0.000000     16.000000
 -0.375000 -0.250000  0.000000     16.000000
 -0.375000  0.125000  0.000000     16.000000
  0.500000 -0.375000  0.000000     16.000000
 -0.125000  0.500000  0.000000     16.000000
  0.500000 -0.125000  0.000000     16.000000
 -0.125000  0.375000  0.000000     16.000000
  0.375000  0.500000  0.000000     16.000000
 -0.125000  0.125000  0.000000     16.000000
 -0.250000 -0.125000  0.000000     16.000000
 -0.125000 -0.250000  0.000000     16.000000
  0.375000  0.375000  0.000000     16.000000
  0.000000  0.375000  0.000000     16.000000
 -0.375000  0.000000  0.000000     16.000000
 -0.375000  0.375000  0.000000     16.000000
  0.250000 -0.375000  0.000000     16.000000
 -0.375000  0.250000  0.000000     16.000000

 Following cartesian coordinates:
            Coordinates               Weight
  0.021278  0.012285  0.000000     16.000000
  0.000000  0.024569  0.000000     16.000000
 -0.021278  0.012285  0.000000     16.000000
  0.063833 -0.012285  0.000000     16.000000
  0.042556  0.049139  0.000000     16.000000
 -0.021278  0.061424  0.000000     16.000000
  0.042556 -0.049139  0.000000     16.000000
 -0.021278 -0.061424  0.000000     16.000000
 -0.063833 -0.012285  0.000000     16.000000
 -0.063833  0.061424  0.000000     16.000000
  0.085111 -0.122847  0.000000     16.000000
 -0.021278  0.110563  0.000000     16.000000
  0.085111 -0.073708  0.000000     16.000000
 -0.021278  0.085993  0.000000     16.000000
  0.063833  0.061424  0.000000     16.000000
 -0.021278  0.036854  0.000000     16.000000
 -0.042556  0.000000  0.000000     16.000000
 -0.021278 -0.036854  0.000000     16.000000
  0.063833  0.036854  0.000000     16.000000
  0.000000  0.073708  0.000000     16.000000
 -0.063833  0.036854  0.000000     16.000000
 -0.063833  0.110563  0.000000     16.000000
  0.042556 -0.098278  0.000000     16.000000
 -0.063833  0.085993  0.000000     16.000000

 SYSTEM =  unknown system
 POSCAR =  Au

 Startparameter for this run:
   NWRITE =      2    write-flag & timer
   PREC   = accura    normal or accurate (medium, high low for compatibility)
   ISTART =      0    job   : 0-new  1-cont  2-samecut
   ICHARG =      2    charge: 1-file 2-atom 10-const
   ISPIN  =      1    spin polarized calculation?
   LNONCOLLINEAR =      F non collinear calculations
   LSORBIT =      F    spin-orbit coupling
   INIWAV =      1    electr: 0-lowe 1-rand  2-diag
   LASPH  =      F    aspherical Exc in radial PAW
   METAGGA=      F    non-selfconsistent MetaGGA calc.

 Electronic Relaxation 1
   ENCUT  =  400.0 eV  29.40 Ry    5.42 a.u.   9.58  9.58 40.44*2*pi/ulx,y,z
   ENINI  =  400.0     initial cutoff
   ENAUG  =  356.7 eV  augmentation charge cutoff
   NELM   =     60;   NELMIN=  2; NELMDL= -5     # of ELM steps
   EDIFF  = 0.1E-03   stopping-criterion for ELM
   LREAL  =      F    real-space projection
   NLSPLINE    = F    spline interpolate recip. space projectors
   LCOMPAT=      F    compatible to vasp.4.4
   GGA_COMPAT  = T    GGA compatible to vasp.4.4-vasp.4.6
   LMAXPAW     = -100 max onsite density
   LMAXMIX     =    2 max onsite mixed and CHGCAR
   VOSKOWN=      0    Vosko Wilk Nusair interpolation
   ROPT   =    0.00000
 Ionic relaxation
   EDIFFG = -.3E-01   stopping-criterion for IOM
   NSW    =   1000    number of steps for IOM
   NBLOCK =      1;   KBLOCK =   1000    inner block; outer block
   IBRION =      2    ionic relax: 0-MD 1-quasi-New 2-CG
   NFREE  =      1    steps in history (QN), initial steepest desc. (CG)
   ISIF   =      2    stress and relaxation
   IWAVPR =     11    prediction:  0-non 1-charg 2-wave 3-comb
   ISYM   =      0    0-nonsym 1-usesym 2-fastsym
   LCORR  =      T    Harris-Foulkes like correction to forces

   POTIM  = 0.5000    time-step for ionic-motion
   TEIN   =    0.0    initial temperature
   TEBEG  =    0.0;   TEEND  =   0.0 temperature during run
   SMASS  =  -3.00    Nose mass-parameter (am)
   estimated Nose-frequenzy (Omega)   =  0.10E-29 period in steps =****** mass=  -0.789E-27a.u.
   SCALEE = 1.0000    scale energy and forces
   NPACO  =    256;   APACO  = 16.0  distance and # of slots for P.C.
   PSTRESS=    0.0 pullay stress

  Mass of Ions in am
   POMASS = 196.97
  Ionic Valenz
   ZVAL   =  11.00
  Atomic Wigner-Seitz radii
  virtual crystal weights
   VCA    =   1.00
   NELECT =     132.0000    total number of electrons
   NUPDOWN=      -1.0000    fix difference up-down

 DOS related values:
   EMIN   =  10.00;   EMAX   =-10.00  energy-range for DOS
   EFERMI =   0.00
   ISMEAR =     0;   SIGMA  =   0.01  broadening in eV -4-tet -1-fermi 0-gaus

 Electronic relaxation 2 (details)
   IALGO  =     38    algorithm
   LDIAG  =      T    sub-space diagonalisation (order eigenvalues)
   LSUBROT=      F    optimize rotation matrix (better conditioning)
   TURBO    =      0    0=normal 1=particle mesh
   IRESTART =      0    0=no restart 2=restart with 2 vectors
   NREBOOT  =      0    no. of reboots
   NMIN     =      0    reboot dimension
   EREF     =   0.00    reference energy to select bands
   IMIX   =      4    mixing-type and parameters
     AMIX     =   0.40;   BMIX     =  1.00
     AMIX_MAG =   1.60;   BMIX_MAG =  1.00
     AMIN     =   0.10
     WC   =   100.;   INIMIX=   1;  MIXPRE=   1;  MAXMIX= -45

 Intra band minimization:
   WEIMIN = 0.0010     energy-eigenvalue tresh-hold
   EBREAK =  0.26E-06  absolut break condition
   DEPER  =   0.30     relativ break condition

   TIME   =   0.40     timestep for ELM

  volume/ion in A,a.u.               =      61.76       416.78
  Fermi-wavevector in a.u.,A,eV,Ry     =   0.921091  1.740610 11.543301  0.848409
  Thomas-Fermi vector in A             =   2.046469

 Write flags
   LWAVE        =      T    write WAVECAR
   LDOWNSAMPLE  =      F    k-point downsampling of WAVECAR
   LCHARG       =      T    write CHGCAR
   LVTOT        =      F    write LOCPOT, total local potential
   LVHAR        =      F    write LOCPOT, Hartree potential only
   LELF         =      F    write electronic localiz. function (ELF)
   LORBIT       =      0    0 simple, 1 ext, 2 COOP (PROOUT), +10 PAW based schemes

 Dipole corrections
   LMONO  =      F    monopole corrections only (constant potential shift)
   LDIPOL =      F    correct potential (dipole corrections)
   IDIPOL =      0    1-x, 2-y, 3-z, 4-all directions
   EPSILON=  1.0000000 bulk dielectric constant

 Exchange correlation treatment:
   GGA     =    PE    GGA type
   VOSKOWN=      0    Vosko Wilk Nusair interpolation
   LHFCALC =     F    Hartree Fock is set to
   LHFONE  =     F    Hartree Fock one center treatment
   AEXX    =    0.0000 exact exchange contribution

 Linear response parameters
   LEPSILON=     F    determine dielectric tensor
   LRPA    =     F    only Hartree local field effects (RPA)
   LNABLA  =     F    use nabla operator in PAW spheres
   LVEL    =     F    velocity operator in full k-point grid
   LINTERFAST=   F  fast interpolation
   KINTER  =     0    interpolate to denser k-point grid
   CSHIFT  =0.1000    complex shift for real part using Kramers Kronig
   OMEGAMAX=  -1.0    maximum frequency
   DEG_THRESHOLD= 0.2000000E-02 threshold for treating states as degnerate
   RTIME   =   -0.100 relaxation time in fs
  (WPLASMAI=    0.000 imaginary part of plasma frequency in eV, 0.658/RTIME)
   DFIELD  = 0.0000000 0.0000000 0.0000000 field for delta impulse in time

 Orbital magnetization related:
   ORBITALMAG=     F  switch on orbital magnetization
   LCHIMAG   =     F  perturbation theory with respect to B field
   DQ        =  0.001000  dq finite difference perturbation B field
[...]
  in kB     -32.10003   -32.10000    -5.99738    -0.00003     0.00000     0.00000

 VOLUME and BASIS-vectors are now :
  energy-cutoff  :      400.00
  volume of cell :      741.12
      direct lattice vectors                 reciprocal lattice vectors
     5.874671422  0.000000000  0.000000000     0.170222286 -0.098277883  0.000000000
     2.937335711  5.087614691  0.000000000     0.000000000  0.196555765  0.000000000
     0.000000000  0.000000000 24.796649130     0.000000000  0.000000000  0.040328030

[...]

 FORCES acting on ions
    electron-ion (+dipol)            ewald-force                    non-local-force                 convergence-correction
   -.297E-04 0.243E-04 0.207E+04   0.222E-11 0.130E-11 -.207E+04   -.406E-06 -.112E-06 -.385E+00   0.287E-04 -.241E-04 0.101E-01
   0.289E-04 0.365E-05 0.207E+04   0.224E-11 0.130E-11 -.207E+04   -.115E-05 0.363E-06 -.385E+00   -.276E-04 -.410E-05 0.101E-01
   -.184E-04 0.520E-05 0.207E+04   0.226E-11 0.130E-11 -.207E+04   0.392E-08 -.547E-06 -.385E+00   0.175E-04 -.529E-05 0.102E-01
   0.159E-04 -.299E-04 0.207E+04   0.229E-11 0.130E-11 -.207E+04   -.946E-06 0.582E-06 -.385E+00   -.154E-04 0.278E-04 0.101E-01
   0.225E-04 0.164E-04 -.738E-02   -.345E-11 -.196E-11 -.114E-12   0.341E-06 0.161E-05 -.115E-03   -.229E-04 -.182E-04 0.758E-02
   -.236E-04 -.112E-04 -.737E-02   -.343E-11 -.195E-11 -.114E-12   0.237E-05 0.149E-05 -.113E-03   0.220E-04 0.102E-04 0.757E-02
   -.216E-04 -.167E-04 -.737E-02   -.342E-11 -.195E-11 -.114E-12   -.896E-06 -.156E-06 -.113E-03   0.230E-04 0.169E-04 0.757E-02
   0.230E-04 0.107E-04 -.738E-02   -.339E-11 -.195E-11 -.114E-12   -.125E-05 -.216E-05 -.115E-03   -.223E-04 -.864E-05 0.758E-02
   -.190E-04 0.312E-04 -.207E+04   0.114E-11 0.645E-12 0.207E+04   0.256E-05 -.185E-07 0.385E+00   0.166E-04 -.301E-04 -.160E-02
   0.200E-04 -.820E-05 -.207E+04   0.116E-11 0.652E-12 0.207E+04   -.676E-06 0.452E-06 0.385E+00   -.187E-04 0.798E-05 -.168E-02
   -.332E-04 -.366E-05 -.207E+04   0.118E-11 0.640E-12 0.207E+04   0.194E-05 -.221E-05 0.385E+00   0.310E-04 0.565E-05 -.161E-02
   0.358E-04 -.248E-04 -.207E+04   0.120E-11 0.645E-12 0.207E+04   -.117E-05 0.755E-06 0.385E+00   -.341E-04 0.238E-04 -.163E-02
   0.590E-06 -.294E-05 -.641E-01   0.441E-14 -.197E-13 0.273E-11   0.724E-06 0.476E-07 0.986E-03   -.218E-05 0.175E-05 0.642E-01

 POSITION                                       TOTAL-FORCE (eV/Angst)
      1.46867      0.84794     10.00000        -0.000001      0.000000      0.134886
      4.40600      0.84794     10.00000         0.000000      0.000000      0.134889
      2.93734      3.39174     10.00000        -0.000001     -0.000001      0.134883
      5.87467      3.39174     10.00000        -0.000000     -0.000001      0.134888
      5.87467      1.69587     12.39832         0.000000     -0.000000     -0.000004
      2.93734      1.69587     12.39832         0.000001      0.000001     -0.000004
      7.34334      4.23968     12.39832         0.000001      0.000000     -0.000004
      4.40600      4.23968     12.39832        -0.000001      0.000000     -0.000004
      0.00000      0.00000     14.79665         0.000000      0.000001     -0.134885
      2.93734      0.00000     14.79665         0.000001      0.000000     -0.134877
      1.46867      2.54381     14.79665        -0.000000     -0.000000     -0.134885
      4.40600      2.54381     14.79665         0.000001     -0.000000     -0.134882
    total drift:                               -0.000001     -0.000001      0.001070

  FREE ENERGIE OF THE ION-ELECTRON SYSTEM (eV)
  free  energy   TOTEN  =       -41.05618825 eV

  energy  without entropy=      -41.05517467  energy(sigma->0) =      -41.05568146

 stress matrix after NEB project (eV)
    -14.84860     -0.00001      0.00000
     -0.00001    -14.84859      0.00000
      0.00000      0.00000     -2.77423
  FORCES: max atom, RMS     0.134885    0.077874
  FORCE total and by dimension    0.269765    0.134885
  Stress total and by dimension   21.181548   14.848603

[...]

         DFTD3 V3.0 Rev 1
 Edisp (eV)   -5.19695

[...]

 d Force = 0.3206174E-02[ 0.290E-02, 0.351E-02]  d Energy = 0.3346830E-02-0.141E-03
 d Force =-0.5385824E+02[-0.539E+02,-0.538E+02]  d Ewald  =-0.5385825E+02 0.620E-05

 stress matrix after NEB project (eV)
    -14.68506     -0.00001      0.00001
     -0.00001    -14.68505      0.00000
      0.00001      0.00000     -2.54273
  FORCES: max atom, RMS     0.111479    0.066046
  FORCE total and by dimension    0.228788    0.111479
  Stress total and by dimension   20.922881   14.685055
 Steepest descent step on ions:
 trial-energy change:   -0.003347  1 .order   -0.003206   -0.003511   -0.002902
  (g-gl).g = 0.351E-02      g.g   = 0.351E-02  gl.gl    = 0.000E+00
 g(Force)  = 0.351E-02   g(Stress)= 0.000E+00 ortho     = 0.000E+00
 gamma     =   0.00000
 trial     =   1.00000
 opt step  =   4.00000  (harmonic =   5.76317) maximal distance =0.00000022
 next E    =   -41.066305   (d E  =  -0.01012)

[...]

 d Force =-0.6962910E-02[-0.208E-01, 0.685E-02]  d Energy =-0.6434036E-02-0.529E-03
 d Force =-0.3245125E+03[-0.325E+03,-0.324E+03]  d Ewald  =-0.3245140E+03 0.148E-02

[...]

 d Force = 0.7557475E-02[-0.509E-03, 0.156E-01]  d Energy = 0.7381088E-02 0.176E-03
 d Force = 0.2441781E+03[ 0.244E+03, 0.245E+03]  d Ewald  = 0.2441787E+03-0.637E-03

[...]

 stress matrix after NEB project (eV)
    -13.92931     -0.00001      0.00001
     -0.00001    -13.92930      0.00000
      0.00001      0.00000     -1.27860
  FORCES: max atom, RMS     0.113926    0.065790
  FORCE total and by dimension    0.227902    0.113926
  Stress total and by dimension   19.740461   13.929310
 Conjugate gradient step on ions:
 trial-energy change:   -0.003148  1 .order   -0.003149   -0.003432   -0.002866
  (g-gl).g = 0.341E-02      g.g   = 0.352E-02  gl.gl    = 0.351E-02
 g(Force)  = 0.352E-02   g(Stress)= 0.000E+00 ortho     = 0.113E-03
 gamma     =   0.97011
 trial     =   0.94610
 opt step  =   3.78442  (harmonic =   5.73842) maximal distance =0.00000065
 next E    =   -41.077168   (d E  =  -0.01041)

[...]

 d Force = 0.6004860E-02[ 0.341E-02, 0.860E-02]  d Energy = 0.5941678E-02 0.632E-04
 d Force =-0.1536981E+03[-0.154E+03,-0.154E+03]  d Ewald  =-0.1536983E+03 0.146E-03

[...]

 d Force =-0.5257354E-02[-0.173E-01, 0.682E-02]  d Energy =-0.5367130E-02 0.110E-03
 d Force =-0.3082420E+03[-0.309E+03,-0.308E+03]  d Ewald  =-0.3082432E+03 0.125E-02

[...]

 eigenvalue-minimisations  :  5328
 total energy-change (2. order) :-0.3128646E-01  (-0.3160365E-01)
 number of electron     132.0000030 magnetization
 augmentation part       48.3473679 magnetization

[...]

 Broyden mixing:
  rms(total) = 0.69937E-02    rms(broyden)= 0.69930E-02
  rms(prec ) = 0.74808E-02
  weight for this iteration     100.00

 eigenvalues of (default mixing * dielectric matrix)
  average eigenvalue GAMMA=   1.2773
  2.0588  0.8866  0.8866

[...]

--------------------------------------- Iteration      9(   5)  ---------------------------------------

 eigenvalue-minimisations  :  5112
 total energy-change (2. order) : 0.1526953E-04  (-0.7421687E-04)
 number of electron     132.0000030 magnetization
 augmentation part       48.3450486 magnetization

 Free energy of the ion-electron system (eV)
  alpha Z        PSCENC =       226.31929978
  Ewald energy   TEWEN  =     46481.08523343
  -Hartree energ DENC   =    -57637.29984186
  -exchange      EXHF   =         0.00000000
  -V(xc)+E(xc)   XCENC  =       177.02643604
  PAW double counting   =     12035.42680269   -11785.05655396
  entropy T*S    EENTRO =        -0.00000000
  eigenvalues    EBANDS =      -646.30806454
  atomic energy  EATOM  =     11112.96622521
  Solvation  Ediel_sol  =         0.00000000
  free energy    TOTEN  =       -35.84046322 eV

  energy without entropy =      -35.84046322  energy(sigma->0) =      -35.84046322

 average (electrostatic) potential at core
  the test charge radii are     1.2098
  (the norm of the test charge is              1.0000)
       1 -74.2398       2 -74.2398       3 -74.2398       4 -74.2398       5 -74.6490
       6 -74.6490       7 -74.6490       8 -74.6490       9 -74.2449      10 -74.2449
      11 -74.2449      12 -74.2449

 E-fermi :  -1.2489     XC(G=0):  -4.2455     alpha+bet : -3.8447

[...]

 k-point    24 :      -0.3750    0.2500    0.0000
  band No.  band energies     occupation
      1      -8.0576      2.00000
      2      -8.0576      2.00000
      3      -7.5309      2.00000
      4      -6.8565      2.00000
      5      -6.8565      2.00000
      6      -6.8007      2.00000
      7      -6.6526      2.00000
      8      -6.6238      2.00000
      9      -6.6238      2.00000
     10      -6.6085      2.00000
     11      -6.4333      2.00000
     12      -6.4011      2.00000
     13      -6.3414      2.00000
     14      -6.2471      2.00000
     15      -6.2471      2.00000
     16      -6.2092      2.00000
     17      -5.9610      2.00000
     18      -5.9610      2.00000
     19      -5.9494      2.00000
     20      -5.7134      2.00000
     21      -5.6515      2.00000
     22      -5.4793      2.00000
     23      -5.4721      2.00000
     24      -5.4721      2.00000
     25      -5.4398      2.00000
     26      -5.4398      2.00000
     27      -5.3253      2.00000
     28      -5.2975      2.00000
     29      -5.2940      2.00000
     30      -5.2940      2.00000
     31      -4.9717      2.00000
     32      -4.9385      2.00000
     33      -4.8706      2.00000
     34      -4.8706      2.00000
     35      -4.8554      2.00000
     36      -4.8515      2.00000
     37      -4.7834      2.00000
     38      -4.7682      2.00000
     39      -4.6914      2.00000
     40      -4.6914      2.00000
     41      -4.4629      2.00000
     42      -4.4629      2.00000
     43      -4.2788      2.00000
     44      -4.1947      2.00000
     45      -4.0863      2.00000
     46      -4.0631      2.00000
     47      -4.0475      2.00000
     48      -4.0475      2.00000
     49      -3.8858      2.00000
     50      -3.8858      2.00000
     51      -3.6982      2.00000
     52      -3.5581      2.00000
     53      -3.5581      2.00000
     54      -3.4501      2.00000
     55      -3.4501      2.00000
     56      -3.4058      2.00000
     57      -3.3118      2.00000
     58      -3.2500      2.00000
     59      -3.2181      2.00000
     60      -3.2181      2.00000
[...]
     82       5.4843      0.00000
     83       5.7246      0.00000
     84       5.7246      0.00000
     85       5.8550      0.00000
     86       5.8550      0.00000
     87       6.4630      0.00000
     88       6.5222      0.00000
     89       6.6425      0.00000
     90       6.9858      0.00000
     91       6.9858      0.00000
     92       7.0225      0.00000
     93       7.0225      0.00000
     94       7.0870      0.00000
     95       7.1577      0.00000
     96       7.6225      0.00000

 soft charge-density along one line, spin component           1
         0         1         2         3         4         5         6         7         8         9
 total charge-density along one line

------------------------ aborting loop because EDIFF is reached ----------------------------------------

         DFTD3 V3.0 Rev 1
 Edisp (eV)   -5.23632

 E6    (eV) :    -2.7766
 E8    (eV) :    -2.4597
 % E8        : 46.97

  FORCE on cell =-STRESS in cart. coord.  units (eV):
  Direction    XX          YY          ZZ          XY          YZ          ZX
  Alpha Z   226.31930   226.31930   226.31930
  Ewald   54118.19209 54118.19209-61755.31060     0.00001    -0.00000     0.00001
  Hartree 56650.83283 56650.83284-55664.95254     0.00000    -0.00000     0.00000
  E(xc)    -592.04633  -592.04633  -595.18838    -0.00000    -0.00000    -0.00000
  Local  ************************115131.79967    -0.00003    -0.00000    -0.00001
  n-local   -20.53358   -20.53359    -9.20577     0.00001     0.00000     0.00000
  augment   811.05984   811.05984   816.30986     0.00000     0.00000    -0.00000
  Kinetic  1831.92567  1831.92567  1853.01769     0.00000    -0.00000    -0.00000
  Fock        0.00000     0.00000     0.00000     0.00000     0.00000     0.00000
  vdW        -5.46891    -5.46891    -2.92954    -0.00000     0.00000    -0.00000
  Total     -13.38253   -13.38252    -0.14032    -0.00001    -0.00000    -0.00000
  in kB     -28.93063   -28.93061    -0.30334    -0.00002    -0.00000    -0.00000

 VOLUME and BASIS-vectors are now :
  energy-cutoff  :      400.00
  volume of cell :      741.12
      direct lattice vectors                 reciprocal lattice vectors
     5.874671422  0.000000000  0.000000000     0.170222286 -0.098277883  0.000000000
     2.937335711  5.087614691  0.000000000     0.000000000  0.196555765  0.000000000
     0.000000000  0.000000000 24.796649130     0.000000000  0.000000000  0.040328030

  length of vectors
     5.874671422  5.874671422 24.796649130     0.196555765  0.196555765  0.040328030

 FORCES acting on ions
    electron-ion (+dipol)            ewald-force                    non-local-force                 convergence-correction
   -.175E-04 -.678E-04 0.208E+04   0.253E-04 0.581E-04 -.208E+04   -.573E-06 -.332E-05 -.489E+00   -.884E-05 0.128E-04 -.466E-01
   -.158E-04 0.138E-04 0.208E+04   0.617E-05 -.220E-04 -.208E+04   -.138E-05 0.350E-05 -.489E+00   0.112E-04 0.735E-05 -.466E-01
   0.678E-04 0.178E-04 0.208E+04   -.653E-04 -.139E-04 -.208E+04   0.111E-05 0.315E-06 -.489E+00   -.428E-05 -.427E-05 -.466E-01
   -.667E-04 0.171E-04 0.208E+04   0.599E-04 -.352E-05 -.208E+04   0.475E-05 0.785E-06 -.489E+00   0.634E-05 -.155E-04 -.466E-01
   -.237E-03 -.495E-04 0.270E+00   0.243E-03 0.533E-04 -.600E-01   0.155E-05 0.263E-05 0.165E-01   -.350E-05 -.453E-05 -.227E+00
   0.351E-03 0.124E-03 0.270E+00   -.366E-03 -.929E-04 -.599E-01   -.151E-04 0.624E-06 0.164E-01   0.199E-04 -.319E-04 -.227E+00
   0.881E-04 0.123E-03 0.270E+00   -.612E-04 -.143E-03 -.599E-01   0.106E-04 -.658E-06 0.164E-01   -.337E-04 0.200E-04 -.227E+00
   -.153E-03 -.161E-03 0.270E+00   0.128E-03 0.146E-03 -.600E-01   0.196E-06 -.729E-05 0.164E-01   0.264E-04 0.221E-04 -.227E+00
   -.193E-03 -.462E-03 -.208E+04   0.196E-03 0.468E-03 0.208E+04   0.433E-05 0.699E-05 0.511E+00   -.368E-05 -.808E-05 -.175E+00
   0.301E-03 0.485E-05 -.208E+04   -.297E-03 -.407E-05 0.208E+04   -.382E-05 0.173E-05 0.511E+00   -.261E-05 -.139E-05 -.175E+00
   0.428E-03 0.425E-03 -.208E+04   -.435E-03 -.423E-03 0.208E+04   -.838E-05 -.617E-05 0.511E+00   0.116E-04 0.798E-06 -.175E+00
   -.571E-03 0.141E-04 -.208E+04   0.566E-03 -.220E-04 0.208E+04   0.126E-04 -.102E-05 0.511E+00   0.187E-06 0.938E-05 -.175E+00
   -.190E-04 -.100E-05 0.166E+01   -.685E-14 0.516E-14 0.273E-11   0.589E-05 -.188E-05 0.151E+00   0.189E-04 0.672E-05 -.179E+01

 POSITION                                       TOTAL-FORCE (eV/Angst)
      1.46867      0.84794     10.00000        -0.000002     -0.000001     -0.003265
      4.40600      0.84794     10.00000        -0.000000      0.000002     -0.003267
      2.93734      3.39174     10.00000        -0.000001     -0.000000     -0.003266
      5.87467      3.39174     10.00000         0.000004     -0.000001     -0.003266
      5.87467      1.69587     12.36325         0.000003      0.000002     -0.001376
      2.93734      1.69587     12.36325        -0.000010     -0.000000     -0.001399
      7.34334      4.23968     12.36325         0.000003     -0.000001     -0.001400
      4.40600      4.23968     12.36325         0.000001     -0.000001     -0.001394
      0.00000     -0.00000     14.72581         0.000003      0.000004      0.004661
      2.93734     -0.00000     14.72581        -0.000003      0.000001      0.004649
      1.46867      2.54381     14.72581        -0.000005     -0.000004      0.004662
      4.40600      2.54381     14.72581         0.000007      0.000000      0.004659
    total drift:                                0.000006      0.000004      0.016176

  FREE ENERGIE OF THE ION-ELECTRON SYSTEM (eV)
  free  energy   TOTEN  =       -41.07678214 eV

  energy  without entropy=      -41.07678214  energy(sigma->0) =      -41.07678214

 d Force = 0.6393989E-02[ 0.347E-03, 0.124E-01]  d Energy = 0.6300896E-02 0.931E-04
 d Force = 0.2213200E+03[ 0.221E+03, 0.222E+03]  d Ewald  = 0.2213205E+03-0.468E-03

 stress matrix after NEB project (eV)
    -13.38253     -0.00001     -0.00000
     -0.00001    -13.38252     -0.00000
     -0.00000     -0.00000     -0.14032
  FORCES: max atom, RMS     0.004662    0.002807
  FORCE total and by dimension    0.009723    0.004662
  Stress total and by dimension   18.926263   13.382526

 reached required accuracy - stopping structural energy minimisation
 writing wavefunctions