 vasp.5.4.4.18Apr17-6-g9f103f2a35 (build Nov 04 2020 14:40:39) complex

 executed on             LinuxIFC date 2021.02.01  13:52:57

 INCAR:
 POTCAR:    PAW_PBE Au 04Oct2007

 POTCAR:    PAW_PBE Au 04Oct2007
   VRHFIN =Au: s1d10

   TITEL  = PAW_PBE Au 04Oct2007
   POMASS =  196.966; ZVAL   =   11.000    mass and valenz
   ENMAX  =  229.943; ENMIN  =  172.457 eV

  PAW_PBE Au 04Oct2007                  :

 POSCAR: Au
  positions in cartesian coordinates
 exchange correlation table for  LEXCH =        8
   RHO(1)=    0.500       N(1)  =     2000
   RHO(2)=  100.500       N(2)  =     4000

 VTST: version 3.2, (02/03/18)

 CHAIN: initializing optimizer

 OPT: Using VASP Conjugate-Gradient optimizer
 CHAIN: Read ICHAIN            0

 POSCAR: Au
  positions in cartesian coordinates

 ion  position               nearest neighbor table
   1  0.000  0.000  0.000-   2 2.88   3 2.88   4 2.88   3 2.88   4 2.88   2 2.88   4 2.88   4 2.88
                             2 2.88   3 2.88   3 2.88   2 2.88
   2  0.500  0.500  0.000-   1 2.88   3 2.88   4 2.88   3 2.88   4 2.88   1 2.88   3 2.88   3 2.88
                             1 2.88   4 2.88   4 2.88   1 2.88
   3  0.500  0.000  0.500-   1 2.88   2 2.88   4 2.88   1 2.88   2 2.88   2 2.88   4 2.88   2 2.88
                             1 2.88   4 2.88   1 2.88   4 2.88
   4  0.000  0.500  0.500-   1 2.88   2 2.88   3 2.88   1 2.88   2 2.88   1 2.88   3 2.88   1 2.88
                             2 2.88   3 2.88   2 2.88   3 2.88

IMPORTANT INFORMATION: All symmetrisations will be switched off!
NOSYMM: (Re-)initialisation of all symmetry stuff for point group C_1.

 KPOINTS: KPOINTS created by Atomic Simulation Env

Automatic generation of k-mesh.
Space group operators:
 irot       det(A)        alpha          n_x          n_y          n_z        tau_x        tau_y        tau_z
    1     1.000000     0.000001     1.000000     0.000000     0.000000     0.000000     0.000000     0.000000

 Subroutine IBZKPT returns following result:

 Found    500 irreducible k-points:

 Following reciprocal coordinates:
            Coordinates               Weight
  0.050000  0.050000  0.050000      2.000000
  0.150000  0.050000  0.050000      2.000000
  0.250000  0.050000  0.050000      2.000000
  0.350000  0.050000  0.050000      2.000000
  0.450000  0.050000  0.050000      2.000000
 -0.450000  0.050000  0.050000      2.000000
 -0.350000  0.050000  0.050000      2.000000
 -0.250000  0.050000  0.050000      2.000000
 -0.150000  0.050000  0.050000      2.000000
 -0.050000  0.050000  0.050000      2.000000
  0.050000  0.150000  0.050000      2.000000
  0.150000  0.150000  0.050000      2.000000
  0.250000  0.150000  0.050000      2.000000
  0.350000  0.150000  0.050000      2.000000
  0.450000  0.150000  0.050000      2.000000
 -0.450000  0.150000  0.050000      2.000000
 -0.350000  0.150000  0.050000      2.000000
 -0.250000  0.150000  0.050000      2.000000
 -0.150000  0.150000  0.050000      2.000000
 -0.050000  0.150000  0.050000      2.000000
  0.050000  0.250000  0.050000      2.000000
  0.150000  0.250000  0.050000      2.000000
  0.250000  0.250000  0.050000      2.000000
  0.350000  0.250000  0.050000      2.000000
  0.450000  0.250000  0.050000      2.000000
 -0.450000  0.250000  0.050000      2.000000
 -0.350000  0.250000  0.050000      2.000000
 -0.250000  0.250000  0.050000      2.000000
 -0.150000  0.250000  0.050000      2.000000
 -0.050000  0.250000  0.050000      2.000000
  0.050000  0.350000  0.050000      2.000000
  0.150000  0.350000  0.050000      2.000000
  0.250000  0.350000  0.050000      2.000000
  0.350000  0.350000  0.050000      2.000000
  0.450000  0.350000  0.050000      2.000000
 -0.450000  0.350000  0.050000      2.000000
 -0.350000  0.350000  0.050000      2.000000
 -0.250000  0.350000  0.050000      2.000000
 -0.150000  0.350000  0.050000      2.000000
 -0.050000  0.350000  0.050000      2.000000
  0.050000  0.450000  0.050000      2.000000
  0.150000  0.450000  0.050000      2.000000
  0.250000  0.450000  0.050000      2.000000
  0.350000  0.450000  0.050000      2.000000
  0.450000  0.450000  0.050000      2.000000
 -0.450000  0.450000  0.050000      2.000000
 -0.350000  0.450000  0.050000      2.000000
 -0.250000  0.450000  0.050000      2.000000
 -0.150000  0.450000  0.050000      2.000000
 -0.050000  0.450000  0.050000      2.000000
  0.050000 -0.450000  0.050000      2.000000
  0.150000 -0.450000  0.050000      2.000000
  0.250000 -0.450000  0.050000      2.000000
  0.350000 -0.450000  0.050000      2.000000
  0.450000 -0.450000  0.050000      2.000000
 -0.450000 -0.450000  0.050000      2.000000
 -0.350000 -0.450000  0.050000      2.000000
 -0.250000 -0.450000  0.050000      2.000000
 -0.150000 -0.450000  0.050000      2.000000
 -0.050000 -0.450000  0.050000      2.000000
[...]
 -0.450000 -0.150000  0.450000      2.000000
 -0.350000 -0.150000  0.450000      2.000000
 -0.250000 -0.150000  0.450000      2.000000
 -0.150000 -0.150000  0.450000      2.000000
 -0.050000 -0.150000  0.450000      2.000000
  0.050000 -0.050000  0.450000      2.000000
  0.150000 -0.050000  0.450000      2.000000
  0.250000 -0.050000  0.450000      2.000000
  0.350000 -0.050000  0.450000      2.000000
  0.450000 -0.050000  0.450000      2.000000
 -0.450000 -0.050000  0.450000      2.000000
 -0.350000 -0.050000  0.450000      2.000000
 -0.250000 -0.050000  0.450000      2.000000
 -0.150000 -0.050000  0.450000      2.000000
 -0.050000 -0.050000  0.450000      2.000000

 Following cartesian coordinates:
            Coordinates               Weight
  0.012255  0.012255  0.012255      2.000000
  0.036765  0.012255  0.012255      2.000000
  0.061275  0.012255  0.012255      2.000000
  0.085784  0.012255  0.012255      2.000000
  0.110294  0.012255  0.012255      2.000000
 -0.110294  0.012255  0.012255      2.000000
 -0.085784  0.012255  0.012255      2.000000
 -0.061275  0.012255  0.012255      2.000000
 -0.036765  0.012255  0.012255      2.000000
 -0.012255  0.012255  0.012255      2.000000
  0.012255  0.036765  0.012255      2.000000
  0.036765  0.036765  0.012255      2.000000
  0.061275  0.036765  0.012255      2.000000
  0.085784  0.036765  0.012255      2.000000
  0.110294  0.036765  0.012255      2.000000
 -0.110294  0.036765  0.012255      2.000000
 -0.085784  0.036765  0.012255      2.000000
 -0.061275  0.036765  0.012255      2.000000
 -0.036765  0.036765  0.012255      2.000000
 -0.012255  0.036765  0.012255      2.000000
  0.012255  0.061275  0.012255      2.000000
  0.036765  0.061275  0.012255      2.000000
  0.061275  0.061275  0.012255      2.000000
  0.085784  0.061275  0.012255      2.000000
  0.110294  0.061275  0.012255      2.000000
 -0.110294  0.061275  0.012255      2.000000
 -0.085784  0.061275  0.012255      2.000000
 -0.061275  0.061275  0.012255      2.000000
 -0.036765  0.061275  0.012255      2.000000
 -0.012255  0.061275  0.012255      2.000000
  0.012255  0.085784  0.012255      2.000000
  0.036765  0.085784  0.012255      2.000000
  0.061275  0.085784  0.012255      2.000000
  0.085784  0.085784  0.012255      2.000000
  0.110294  0.085784  0.012255      2.000000
 -0.110294  0.085784  0.012255      2.000000
 -0.085784  0.085784  0.012255      2.000000
 -0.061275  0.085784  0.012255      2.000000
 -0.036765  0.085784  0.012255      2.000000
 -0.012255  0.085784  0.012255      2.000000
  0.012255  0.110294  0.012255      2.000000
  0.036765  0.110294  0.012255      2.000000
  0.061275  0.110294  0.012255      2.000000
  0.085784  0.110294  0.012255      2.000000
  0.110294  0.110294  0.012255      2.000000
 -0.110294  0.110294  0.012255      2.000000
 -0.085784  0.110294  0.012255      2.000000
 -0.061275  0.110294  0.012255      2.000000
 -0.036765  0.110294  0.012255      2.000000
 -0.012255  0.110294  0.012255      2.000000
  0.012255 -0.110294  0.012255      2.000000
  0.036765 -0.110294  0.012255      2.000000
  0.061275 -0.110294  0.012255      2.000000
  0.085784 -0.110294  0.012255      2.000000
  0.110294 -0.110294  0.012255      2.000000
 -0.110294 -0.110294  0.012255      2.000000
 -0.085784 -0.110294  0.012255      2.000000
 -0.061275 -0.110294  0.012255      2.000000
 -0.036765 -0.110294  0.012255      2.000000
 -0.012255 -0.110294  0.012255      2.000000
[...]
 -0.110294 -0.036765  0.110294      2.000000
 -0.085784 -0.036765  0.110294      2.000000
 -0.061275 -0.036765  0.110294      2.000000
 -0.036765 -0.036765  0.110294      2.000000
 -0.012255 -0.036765  0.110294      2.000000
  0.012255 -0.012255  0.110294      2.000000
  0.036765 -0.012255  0.110294      2.000000
  0.061275 -0.012255  0.110294      2.000000
  0.085784 -0.012255  0.110294      2.000000
  0.110294 -0.012255  0.110294      2.000000
 -0.110294 -0.012255  0.110294      2.000000
 -0.085784 -0.012255  0.110294      2.000000
 -0.061275 -0.012255  0.110294      2.000000
 -0.036765 -0.012255  0.110294      2.000000
 -0.012255 -0.012255  0.110294      2.000000

 SYSTEM =  unknown system
 POSCAR =  Au

 Startparameter for this run:
   NWRITE =      2    write-flag & timer
   PREC   = accura    normal or accurate (medium, high low for compatibility)
   ISTART =      0    job   : 0-new  1-cont  2-samecut
   ICHARG =      2    charge: 1-file 2-atom 10-const
   ISPIN  =      1    spin polarized calculation?
   LNONCOLLINEAR =      F non collinear calculations
   LSORBIT =      F    spin-orbit coupling
   INIWAV =      1    electr: 0-lowe 1-rand  2-diag
   LASPH  =      F    aspherical Exc in radial PAW
   METAGGA=      F    non-selfconsistent MetaGGA calc.

 Electronic Relaxation 1
   ENCUT  =  520.0 eV  38.22 Ry    6.18 a.u.   7.59  7.59  7.59*2*pi/ulx,y,z
   ENINI  =  520.0     initial cutoff
   ENAUG  =  356.7 eV  augmentation charge cutoff
   NELM   =     60;   NELMIN=  2; NELMDL=  0     # of ELM steps
   EDIFF  = 0.1E-03   stopping-criterion for ELM
   LREAL  =      F    real-space projection
   NLSPLINE    = F    spline interpolate recip. space projectors
   LCOMPAT=      F    compatible to vasp.4.4
   GGA_COMPAT  = T    GGA compatible to vasp.4.4-vasp.4.6
   LMAXPAW     = -100 max onsite density
   LMAXMIX     =    2 max onsite mixed and CHGCAR
   VOSKOWN=      0    Vosko Wilk Nusair interpolation
   ROPT   =    0.00000
 Ionic relaxation
   EDIFFG = -.3E-01   stopping-criterion for IOM
   NSW    =   1000    number of steps for IOM
   NBLOCK =      1;   KBLOCK =   1000    inner block; outer block
   IBRION =      2    ionic relax: 0-MD 1-quasi-New 2-CG
   NFREE  =      1    steps in history (QN), initial steepest desc. (CG)
   ISIF   =      3    stress and relaxation
   IWAVPR =     11    prediction:  0-non 1-charg 2-wave 3-comb
   ISYM   =      0    0-nonsym 1-usesym 2-fastsym
   LCORR  =      T    Harris-Foulkes like correction to forces

   POTIM  = 0.5000    time-step for ionic-motion
   TEIN   =    0.0    initial temperature
   TEBEG  =    0.0;   TEEND  =   0.0 temperature during run
   SMASS  =  -3.00    Nose mass-parameter (am)
   estimated Nose-frequenzy (Omega)   =  0.10E-29 period in steps =****** mass=  -0.380E-27a.u.
   SCALEE = 1.0000    scale energy and forces
   NPACO  =    256;   APACO  = 16.0  distance and # of slots for P.C.
[...]
 k-point ** :   0.1500-0.0500 0.4500  plane waves:    1833
 k-point ** :   0.2500-0.0500 0.4500  plane waves:    1828
 k-point ** :   0.3500-0.0500 0.4500  plane waves:    1829
 k-point ** :   0.4500-0.0500 0.4500  plane waves:    1819
 k-point ** :  -0.4500-0.0500 0.4500  plane waves:    1819
 k-point ** :  -0.3500-0.0500 0.4500  plane waves:    1829
 k-point ** :  -0.2500-0.0500 0.4500  plane waves:    1828
 k-point ** :  -0.1500-0.0500 0.4500  plane waves:    1833
 k-point ** :  -0.0500-0.0500 0.4500  plane waves:    1839

 maximum and minimum number of plane-waves per node :      1841     1813

 maximum number of plane-waves:      1841
 maximum index in each direction:
   IXMAX=    8   IYMAX=    8   IZMAX=    7
   IXMIN=   -8   IYMIN=   -8   IZMIN=   -8

 serial   3D FFT for wavefunctions
 parallel 3D FFT for charge:
    minimum data exchange during FFTs selected (reduces bandwidth)

 Broyden mixing: mesh for mixing (old mesh)
   NGX = 15   NGY = 15   NGZ = 15
  (NGX  = 60   NGY  = 60   NGZ  = 60)
  gives a total of   3375 points

 initial charge density was supplied:
 charge density of overlapping atoms calculated
 number of electron      44.0000000 magnetization
 keeping initial charge density in first step

 Maximum index for augmentation-charges         1534 (set IRDMAX)

 First call to EWALD:  gamma=   0.434
 Maximum number of real-space cells 3x 3x 3
 Maximum number of reciprocal cells 3x 3x 3

--------------------------------------- Iteration      1(   1)  ---------------------------------------

 eigenvalue-minimisations  : 48000
 total energy-change (2. order) : 0.2211012E+03  (-0.2212742E+04)
 number of electron      44.0000000 magnetization
 augmentation part       44.0000000 magnetization

 Free energy of the ion-electron system (eV)
  alpha Z        PSCENC =       274.40333328
  Ewald energy   TEWEN  =     -3915.95376942
  -Hartree energ DENC   =      -494.00614684
  -exchange      EXHF   =         0.00000000
  -V(xc)+E(xc)   XCENC  =        62.70649085
  PAW double counting   =      3496.39001341    -3404.04053930
  entropy T*S    EENTRO =        -0.00021296
  eigenvalues    EBANDS =       497.26879031
  atomic energy  EATOM  =      3704.33328956
  Solvation  Ediel_sol  =         0.00000000
  free energy    TOTEN  =       221.10124889 eV

  energy without entropy =      221.10146185  energy(sigma->0) =      221.10135537

[...]

 eigenvalue-minimisations  : 62232
 total energy-change (2. order) :-0.2316856E+03  (-0.2171452E+03)
 number of electron      44.0000000 magnetization
 augmentation part       44.0000000 magnetization

[...]

 Broyden mixing:
  rms(total) = 0.19030E+01    rms(broyden)= 0.19030E+01
  rms(prec ) = 0.23574E+01
  weight for this iteration     100.00

[...]

 eigenvalues of (default mixing * dielectric matrix)
  average eigenvalue GAMMA=   2.2274
  2.2274

[...]

 average (electrostatic) potential at core
  the test charge radii are     1.2098
  (the norm of the test charge is              1.0000)
       1 -64.0893       2 -64.0893       3 -64.0893       4 -64.0893

 E-fermi :   9.5121     XC(G=0): -12.7383     alpha+bet :-13.9847

 k-point     1 :       0.0500    0.0500    0.0500
  band No.  band energies     occupation
      1      -0.2707      2.00000
      2       2.4861      2.00000
      3       2.4861      2.00000
      4       2.4861      2.00000
      5       2.7960      2.00000
      6       2.7960      2.00000
      7       2.7960      2.00000
      8       4.7937      2.00000
      9       4.8537      2.00000
     10       4.8537      2.00000
     11       6.3355      2.00000
     12       6.3355      2.00000
     13       7.4529      2.00000
     14       7.4529      2.00000
     15       7.4529      2.00000
     16       7.6386      2.00000
     17       7.6386      2.00000
     18       7.6386      2.00000
     19       7.8384      2.00000
     20       7.8384      2.00000
     21       7.8384      2.00000
     22      10.5886      0.00000
     23      10.5886      0.00000
     24      10.5886      0.00000
     25      15.5494      0.00000
     26      15.5494      0.00000
     27      15.5494      0.00000
     28      19.3827      0.00000
     29      19.3827      0.00000
     30      19.3827      0.00000
     31      19.7345      0.00000
     32      19.7345      0.00000
     33      19.7345      0.00000
     34      24.1606      0.00000
     35      26.9965      0.00000
     36      26.9965      0.00000
     37      26.9965      0.00000
     38      27.4843      0.00000
     39      28.1809      0.00000
     40      28.1809      0.00000
     41      29.4313      0.00000
     42      29.4313      0.00000
     43      29.4313      0.00000
     44      33.5183      0.00000
     45      36.4754      0.00000
     46      36.9662      0.00000
     47      36.9666      0.00000
     48      36.9861      0.00000

[...]

 soft charge-density along one line, spin component           1
         0         1         2         3         4         5         6         7         8         9
 total charge-density along one line

------------------------ aborting loop because EDIFF is reached ----------------------------------------

  FORCE on cell =-STRESS in cart. coord.  units (eV):
  Direction    XX          YY          ZZ          XY          YZ          ZX
  Alpha Z   274.40333   274.40333   274.40333
  Ewald   -1305.31850 -1305.31850 -1305.31850     0.00000     0.00000     0.00000
  Hartree   149.91432   149.91433   149.91432    -0.00000     0.00000    -0.00000
  E(xc)    -198.95599  -198.95599  -198.95599    -0.00000    -0.00000     0.00000
  Local     195.47481   195.47478   195.47481     0.00002    -0.00000     0.00000
  n-local     3.09468     3.09469     3.09468    -0.00000     0.00001    -0.00001
  augment   270.76305   270.76304   270.76305     0.00000    -0.00000     0.00000
  Kinetic   614.40550   614.40551   614.40550    -0.00000    -0.00000     0.00000
  Fock        0.00000     0.00000     0.00000     0.00000     0.00000     0.00000
  Total       3.78121     3.78120     3.78121     0.00001     0.00000    -0.00000
  in kB      89.19925    89.19891    89.19923     0.00021     0.00006    -0.00003

 VOLUME and BASIS-vectors are now :
  energy-cutoff  :      520.00
  volume of cell :       67.92
      direct lattice vectors                 reciprocal lattice vectors
     4.080000000  0.000000000  0.000000000     0.245098039  0.000000000  0.000000000
     0.000000000  4.080000000  0.000000000     0.000000000  0.245098039  0.000000000
     0.000000000  0.000000000  4.080000000     0.000000000  0.000000000  0.245098039

[...]

 FORCES acting on ions
    electron-ion (+dipol)            ewald-force                    non-local-force                 convergence-correction
   0.255E-04 0.779E-05 -.300E-04   0.688E-15 0.184E-14 -.914E-14   -.246E-05 -.488E-05 0.676E-05   -.254E-04 -.611E-05 0.262E-04
   -.173E-04 -.201E-05 -.280E-04   0.727E-14 0.113E-13 -.902E-14   0.110E-05 -.364E-05 -.218E-05   0.150E-04 0.441E-05 0.285E-04
   -.525E-05 -.335E-04 0.439E-04   0.131E-14 -.130E-13 0.877E-14   -.238E-06 0.763E-05 -.115E-05   0.482E-05 0.307E-04 -.439E-04
   0.198E-05 0.314E-04 0.146E-04   -.979E-14 -.355E-14 0.889E-14   0.107E-05 -.153E-05 0.123E-05   -.911E-06 -.318E-04 -.148E-04
   0.489E-05 0.368E-05 0.492E-06   -.528E-15 -.343E-14 -.507E-15   -.532E-06 -.242E-05 0.467E-05   -.643E-05 -.280E-05 -.397E-05

 POSITION                                       TOTAL-FORCE (eV/Angst)
      0.00000      0.00000      0.00000        -0.000002     -0.000003      0.000003
      2.04000      2.04000      0.00000        -0.000001     -0.000001     -0.000002
      2.04000      0.00000      2.04000        -0.000000      0.000005     -0.000001
      0.00000      2.04000      2.04000         0.000003     -0.000002      0.000001
    total drift:                               -0.000002     -0.000002      0.000001

  FREE ENERGIE OF THE ION-ELECTRON SYSTEM (eV)
  free  energy   TOTEN  =       -12.78531662 eV

  energy  without entropy=      -12.78506980  energy(sigma->0) =      -12.78519321

 stress matrix after NEB project (eV)
      3.78121      0.00001     -0.00000
      0.00001      3.78120      0.00000
     -0.00000      0.00000      3.78121
  FORCES: max atom, RMS     0.000005    0.000004
  FORCE total and by dimension    0.000008    0.000005
  Stress total and by dimension    6.549244    3.781213

[...]

 d Force = 0.1178725E-11[-0.869E-12, 0.323E-11]  d Energy =-0.7580283E-01 0.758E-01
 d Force =-0.2002850E-10[-0.401E-10,-0.617E-20]  d Ewald  =-0.1707938E+03 0.171E+03

 stress matrix after NEB project (eV)
     -4.23916      0.00001      0.00000
      0.00001     -4.23916      0.00001
      0.00000      0.00001     -4.23917
  FORCES: max atom, RMS     0.000002    0.000001
  FORCE total and by dimension    0.000003    0.000001
  Stress total and by dimension    7.342448    4.239173
 Steepest descent step on ions:
 trial-energy change:    0.075803  1 .order    0.031327   -0.517313    0.579967
  (g-gl).g = 0.517E+00      g.g   = 0.517E+00  gl.gl    = 0.000E+00
 g(Force)  = 0.309E-11   g(Stress)= 0.517E+00 ortho     = 0.000E+00
 gamma     =   0.00000
 trial     =   1.00000
 opt step  =   0.41251  (harmonic =   0.47145) maximal distance =0.00000010
 next E    =   -12.888894   (d E  =  -0.10358)

[...]

 d Force = 0.3419725E-12[ 0.208E-12, 0.476E-12]  d Energy = 0.1751122E+00-0.175E+00
 d Force = 0.1602509E-10[ 0.101E-10, 0.219E-10]  d Ewald  = 0.9848648E+02-0.985E+02

[...]

 eigenvalue-minimisations  : 52368
 total energy-change (2. order) :-0.2150765E-02  (-0.2646343E-02)
 number of electron      43.9999999 magnetization
 augmentation part       16.0798137 magnetization

[...]

 Broyden mixing:
  rms(total) = 0.10223E-01    rms(broyden)= 0.10223E-01
  rms(prec ) = 0.14296E-01
  weight for this iteration     100.00

 eigenvalues of (default mixing * dielectric matrix)
  average eigenvalue GAMMA=   0.9193
  0.9193

[...]

--------------------------------------- Iteration      4(   3)  ---------------------------------------

 eigenvalue-minimisations  : 39216
 total energy-change (2. order) : 0.7637464E-04  (-0.2006248E-04)
 number of electron      43.9999999 magnetization
 augmentation part       16.1017306 magnetization

 Free energy of the ion-electron system (eV)
  alpha Z        PSCENC =       259.99485123
  Ewald energy   TEWEN  =     -3846.17768956
  -Hartree energ DENC   =      -477.80357550
  -exchange      EXHF   =         0.00000000
  -V(xc)+E(xc)   XCENC  =        59.96310610
  PAW double counting   =      4099.88255968    -4017.28619649
  entropy T*S    EENTRO =        -0.00024800
  eigenvalues    EBANDS =       204.20914831
  atomic energy  EATOM  =      3704.33328956
  Solvation  Ediel_sol  =         0.00000000
  free energy    TOTEN  =       -12.88475465 eV

  energy without entropy =      -12.88450665  energy(sigma->0) =      -12.88463065

 average (electrostatic) potential at core
  the test charge radii are     1.2098
  (the norm of the test charge is              1.0000)
       1 -64.7856       2 -64.7858       3 -64.7859       4 -64.7856

 E-fermi :   8.5917     XC(G=0): -12.4184     alpha+bet :-13.2504

[...]

 k-point   500 :      -0.0500   -0.0500    0.4500
  band No.  band energies     occupation
      1       1.3583      2.00000
      2       1.9728      2.00000
      3       3.0599      2.00000
      4       3.0600      2.00000
      5       3.0730      2.00000
      6       3.3603      2.00000
      7       3.5304      2.00000
      8       3.5304      2.00000
      9       4.0876      2.00000
     10       4.0876      2.00000
     11       4.7507      2.00000
     12       4.8460      2.00000
     13       5.1203      2.00000
     14       5.2986      2.00000
     15       5.5062      2.00000
     16       5.5403      2.00000
     17       5.5403      2.00000
     18       5.7418      2.00000
     19       6.0571      2.00000
     20       6.2417      2.00000
     21       6.9477      2.00000
     22       6.9477      2.00000
     23      12.7443      0.00000
     24      12.7443      0.00000
     25      14.2787      0.00000
     26      14.2787      0.00000
     27      15.5631      0.00000
     28      15.5631      0.00000
     29      18.1159      0.00000
     30      18.1159      0.00000
     31      21.5306      0.00000
     32      22.4072      0.00000
     33      22.7476      0.00000
     34      23.4627      0.00000
     35      23.8314      0.00000
     36      24.8917      0.00000
     37      25.1455      0.00000
     38      25.6351      0.00000
     39      26.2895      0.00000
     40      26.7015      0.00000
     41      29.8603      0.00000
     42      29.8603      0.00000
     43      31.2128      0.00000
     44      31.2128      0.00000
     45      32.6952      0.00000
     46      32.6952      0.00000
     47      33.4629      0.00000
     48      33.5239      0.00000

 soft charge-density along one line, spin component           1
         0         1         2         3         4         5         6         7         8         9
 total charge-density along one line

------------------------ aborting loop because EDIFF is reached ----------------------------------------

  FORCE on cell =-STRESS in cart. coord.  units (eV):
  Direction    XX          YY          ZZ          XY          YZ          ZX
  Alpha Z   259.99485   259.99485   259.99485
  Ewald   -1282.05980 -1282.05979 -1282.05980    -0.00007    -0.00002     0.00001
  Hartree   159.26615   159.26615   159.26615    -0.00002    -0.00001     0.00000
  E(xc)    -198.21266  -198.21266  -198.21266    -0.00000    -0.00000     0.00000
  Local     179.26598   179.26598   179.26598     0.00007     0.00002    -0.00001
  n-local    -2.60226    -2.60226    -2.60226     0.00001     0.00000    -0.00000
  augment   271.25309   271.25309   271.25309     0.00000     0.00000    -0.00000
  Kinetic   613.08178   613.08178   613.08178     0.00001     0.00000    -0.00000
  Fock        0.00000     0.00000     0.00000     0.00000     0.00000     0.00000
  Total      -0.01286    -0.01286    -0.01285    -0.00000     0.00000     0.00000
  in kB      -0.28748    -0.28741    -0.28728    -0.00002     0.00002     0.00000

 VOLUME and BASIS-vectors are now :
  energy-cutoff  :      520.00
  volume of cell :       71.68
      direct lattice vectors                 reciprocal lattice vectors
     4.154018105  0.000000173 -0.000000026     0.240730776 -0.000000010  0.000000001
     0.000000173  4.154017826  0.000000053    -0.000000010  0.240730792 -0.000000003
    -0.000000026  0.000000053  4.154018089     0.000000001 -0.000000003  0.240730776

  length of vectors
     4.154018105  4.154017826  4.154018089     0.240730776  0.240730792  0.240730776

 FORCES acting on ions
    electron-ion (+dipol)            ewald-force                    non-local-force                 convergence-correction
   -.318E-05 0.566E-05 0.165E-04   0.235E-05 -.451E-05 -.159E-04   0.270E-06 0.149E-06 -.327E-06   0.826E-06 -.109E-05 -.771E-06
   -.101E-04 -.192E-04 -.398E-05   0.789E-05 0.195E-04 0.358E-05   0.256E-06 -.871E-07 0.241E-06   0.146E-05 -.160E-06 0.489E-06
   -.331E-05 0.370E-04 -.888E-05   0.585E-05 -.375E-04 0.107E-04   -.181E-06 -.601E-06 -.166E-06   -.174E-05 0.621E-06 -.164E-05
   0.165E-04 -.235E-04 -.342E-05   -.161E-04 0.225E-04 0.167E-05   -.356E-06 0.536E-06 0.246E-06   -.491E-06 0.780E-06 0.166E-05
   0.628E-08 -.145E-06 0.252E-06   0.102E-14 0.263E-14 -.322E-14   -.114E-07 -.387E-08 -.536E-08   0.581E-07 0.153E-06 -.265E-06

 POSITION                                       TOTAL-FORCE (eV/Angst)
     -0.00000     -0.00000      0.00000         0.000000      0.000000     -0.000000
      2.07701      2.07701     -0.00000        -0.000000      0.000000      0.000000
      2.07701      0.00000      2.07701         0.000001     -0.000001     -0.000000
      0.00000      2.07701      2.07701        -0.000000      0.000000      0.000000
    total drift:                                0.000000      0.000000     -0.000000

  FREE ENERGIE OF THE ION-ELECTRON SYSTEM (eV)
  free  energy   TOTEN  =       -12.88475465 eV

  energy  without entropy=      -12.88450665  energy(sigma->0) =      -12.88463065

 d Force = 0.5164699E-14[ 0.498E-14, 0.535E-14]  d Energy = 0.1286502E-03-0.129E-03
 d Force = 0.2556506E-12[ 0.252E-12, 0.260E-12]  d Ewald  = 0.2531246E+01-0.253E+01

 stress matrix after NEB project (eV)
     -0.01286     -0.00000      0.00000
     -0.00000     -0.01286      0.00000
      0.00000      0.00000     -0.01285
  FORCES: max atom, RMS     0.000001    0.000001
  FORCE total and by dimension    0.000001    0.000001
  Stress total and by dimension    0.022271    0.012862

 reached required accuracy - stopping structural energy minimisation
 writing wavefunctions